423 5
10 10 10 10 10 

0 0 0 0 0 0 4 2 14 26 38 
0 0 0 0 0 0 5 3 4 6 7 8 
6 1 0 0 0 0 2 12 9 
8 5 0 0 0 0 1 5 
5 1 0 0 0 0 1 9 
1 1 0 0 0 0 1 11 
6 3 0 0 0 0 1 10 
4 2 0 0 0 0 1 10 
7 3 0 0 0 0 1 13 
1 4 0 0 0 0 1 13 
8 3 0 0 0 0 1 13 
6 2 0 0 0 0 1 13 
0 0 0 0 0 0 1 50 
0 0 0 0 0 0 5 15 16 18 19 20 
2 0 1 0 0 0 1 17 
7 0 3 0 0 0 1 17 
7 0 1 0 0 0 4 24 23 22 21 
7 0 4 0 0 0 3 24 22 21 
6 0 5 0 0 0 2 23 22 
5 0 2 0 0 0 1 21 
2 0 1 0 0 0 1 25 
10 0 2 0 0 0 1 25 
6 0 3 0 0 0 1 25 
7 0 3 0 0 0 1 25 
0 0 0 0 0 0 1 50 
0 0 0 0 0 0 4 27 28 29 31 
5 1 0 0 0 0 3 36 33 30 
6 5 0 0 0 0 3 35 33 32 
6 2 0 0 0 0 1 30 
3 3 0 0 0 0 2 34 32 
8 2 0 0 0 0 1 33 
9 2 0 0 0 0 1 37 
5 5 0 0 0 0 1 37 
3 2 0 0 0 0 1 37 
3 1 0 0 0 0 1 37 
9 2 0 0 0 0 1 37 
0 0 0 0 0 0 1 50 
0 0 0 0 0 0 7 39 40 43 44 46 47 48 
4 0 0 0 1 0 1 42 
7 0 0 0 2 0 1 41 
2 0 0 0 3 0 1 45 
5 0 0 0 4 0 1 45 
1 0 0 0 4 0 1 45 
3 0 0 0 1 0 1 45 
5 0 0 0 3 0 1 49 
5 0 0 0 3 0 1 49 
2 0 0 0 2 0 1 49 
5 0 0 0 2 0 1 49 
0 0 0 0 0 0 1 50 
0 0 0 0 0 0 4 51 93 135 177 
0 0 0 0 0 0 5 52 55 57 58 62 
3 1 1 1 1 0 3 60 56 53 
10 3 4 6 4 0 2 64 54 
4 1 2 4 6 0 7 91 78 69 67 65 61 59 
2 2 2 3 6 0 6 91 78 69 67 65 59 
1 1 9 2 3 0 9 91 80 78 74 71 68 67 66 65 
9 4 1 3 2 0 8 80 79 77 76 72 71 63 60 
7 3 1 1 7 0 5 80 72 66 65 61 
9 1 3 1 1 0 8 80 79 77 76 74 72 71 63 
1 2 3 1 1 0 4 74 69 67 64 
7 2 2 2 2 0 4 79 77 76 70 
3 2 2 3 2 0 4 78 76 72 67 
9 3 4 1 2 0 4 85 83 81 70 
1 1 3 1 2 0 3 81 78 73 
6 2 2 4 1 0 2 79 70 
8 3 3 2 4 0 2 85 69 
5 1 4 5 1 0 3 85 81 73 
4 4 2 2 2 0 3 84 77 76 
8 3 2 2 2 0 3 90 83 73 
2 3 1 5 2 0 2 90 73 
1 3 1 2 1 0 2 90 73 
2 1 1 4 2 0 2 83 75 
9 3 6 5 2 0 1 75 
7 3 1 2 3 0 4 90 89 88 83 
2 4 3 1 1 0 3 89 84 82 
1 3 1 4 1 0 3 90 83 82 
7 3 2 2 3 0 3 88 87 81 
5 1 4 3 2 0 3 84 83 82 
10 3 3 1 1 0 3 87 85 84 
5 5 3 2 1 0 2 87 81 
4 1 2 3 1 0 3 90 89 86 
2 1 3 3 1 0 2 88 87 
2 3 3 1 3 0 2 87 86 
1 2 2 2 6 0 1 86 
9 6 3 3 5 0 1 88 
10 5 2 2 2 0 1 92 
10 2 2 2 2 0 1 92 
5 4 2 2 4 0 1 92 
5 2 2 1 2 0 1 92 
4 2 1 2 3 0 1 92 
7 1 2 4 3 0 1 92 
0 0 0 0 0 0 1 423 
0 0 0 0 0 0 6 94 98 99 101 106 112 
2 1 0 1 1 1 3 102 97 95 
10 2 0 3 2 2 4 116 109 103 96 
2 2 0 2 2 3 8 133 126 123 118 115 110 107 100 
10 3 0 4 4 2 9 133 123 120 118 117 110 108 107 104 
4 2 0 4 4 3 4 120 115 108 102 
2 4 0 5 2 1 7 126 123 119 118 111 107 105 
9 1 0 1 2 6 6 131 120 119 117 111 105 
4 3 0 2 1 2 6 126 123 122 115 109 108 
8 2 0 3 3 4 5 122 117 116 109 107 
1 2 0 3 3 4 5 131 126 125 119 108 
9 2 0 2 3 3 3 132 131 109 
1 2 0 1 1 5 2 125 108 
6 2 0 3 1 4 2 118 113 
6 2 0 3 1 2 3 132 131 114 
4 4 0 4 4 2 2 132 113 
7 3 0 4 2 4 2 125 113 
8 1 0 2 1 2 2 131 113 
8 3 0 1 2 1 2 132 114 
10 3 0 2 1 1 3 127 126 119 
2 2 0 3 6 2 1 114 
4 1 0 1 3 3 3 129 124 121 
3 5 0 2 1 2 4 130 129 128 124 
9 3 0 4 3 3 2 128 118 
9 3 0 2 5 2 3 132 129 125 
8 2 0 1 5 2 2 130 125 
6 3 0 1 1 2 1 122 
3 4 0 2 3 2 1 122 
3 2 0 3 4 1 2 130 128 
9 4 0 2 2 3 2 132 129 
1 4 0 3 3 2 2 131 128 
9 2 0 3 2 4 1 127 
5 3 0 2 4 4 1 127 
3 3 0 2 2 1 1 128 
8 4 0 3 1 1 1 134 
3 1 0 1 4 1 1 134 
6 2 0 2 1 3 1 134 
3 1 0 3 5 4 1 134 
7 2 0 3 2 1 1 134 
2 3 0 5 1 4 1 134 
8 2 0 2 2 1 1 134 
0 0 0 0 0 0 1 423 
0 0 0 0 0 0 3 136 140 142 
7 1 1 1 0 1 4 145 139 138 137 
3 3 2 1 0 3 6 164 152 150 149 148 144 
4 4 4 1 0 1 2 147 141 
10 3 3 2 0 5 5 167 152 147 146 143 
2 1 2 6 0 1 4 152 149 146 143 
2 2 2 1 0 2 4 167 152 146 143 
9 3 3 2 0 3 3 150 145 144 
7 3 1 2 0 3 9 164 160 159 157 155 154 153 151 150 
1 2 1 1 0 3 5 157 155 154 151 146 
4 3 2 2 0 1 4 164 160 158 147 
6 3 3 1 0 2 5 162 160 159 158 156 
1 3 5 3 0 2 4 159 157 153 151 
5 4 3 2 0 4 5 162 161 160 159 157 
3 3 3 5 0 3 4 167 166 162 153 
2 1 3 2 0 2 3 162 158 156 
3 3 2 5 0 2 3 170 161 156 
7 3 5 4 0 4 2 162 158 
10 2 3 3 0 2 2 165 161 
5 4 3 1 0 6 2 170 161 
8 2 4 1 0 5 2 165 161 
4 2 2 1 0 4 4 169 168 166 165 
9 2 2 5 0 1 3 175 165 163 
2 3 5 3 0 2 1 161 
3 2 1 3 0 3 3 168 166 165 
5 4 2 2 0 2 3 169 168 166 
10 3 1 2 0 2 2 175 163 
1 3 2 2 0 1 2 170 163 
10 3 3 2 0 3 3 174 169 168 
7 2 4 3 0 2 1 166 
2 1 2 1 0 1 4 174 173 172 171 
6 2 3 3 0 1 4 175 174 172 171 
1 2 1 6 0 2 1 168 
7 2 2 2 0 3 3 173 172 171 
8 2 2 2 0 4 3 173 172 171 
1 2 2 2 0 2 2 173 171 
4 5 2 5 0 4 1 176 
5 2 3 1 0 1 1 176 
8 1 3 3 0 2 1 176 
1 2 1 5 0 4 1 176 
10 2 2 1 0 1 1 176 
0 0 0 0 0 0 1 423 
0 0 0 0 0 0 4 178 179 186 187 
2 0 1 0 0 0 4 185 184 183 181 
6 0 2 0 0 0 2 182 180 
10 0 3 0 0 0 2 184 183 
3 0 4 0 0 0 1 182 
10 0 5 0 0 0 1 188 
3 0 1 0 0 0 1 188 
7 0 2 0 0 0 1 188 
3 0 3 0 0 0 1 188 
5 0 2 0 0 0 1 188 
3 0 2 0 0 0 1 188 
0 0 0 0 0 0 4 189 221 233 265 
0 0 0 0 0 0 6 190 191 192 193 194 197 
6 1 0 1 1 0 4 204 198 196 195 
3 3 0 6 2 0 5 207 205 204 198 195 
3 3 0 2 2 0 4 205 204 198 195 
3 2 0 2 2 0 2 196 195 
6 4 0 2 4 0 3 200 199 196 
2 4 0 2 1 0 4 203 202 201 199 
8 3 0 2 2 0 4 207 205 202 201 
4 3 0 2 1 0 4 205 203 201 199 
9 2 0 3 4 0 1 200 
1 2 0 1 2 0 3 209 208 206 
7 5 0 1 1 0 3 209 208 206 
2 2 0 4 2 0 2 209 206 
4 2 0 2 3 0 2 209 206 
9 3 0 3 3 0 2 208 206 
9 3 0 4 3 0 2 209 206 
3 1 0 2 3 0 1 206 
8 2 0 1 4 0 4 219 216 211 210 
3 4 0 3 4 0 2 210 208 
3 2 0 3 2 0 5 219 216 214 213 212 
4 4 0 5 2 0 4 216 213 212 210 
2 2 0 3 4 0 2 218 214 
9 2 0 4 1 0 2 213 212 
9 1 0 1 2 0 2 218 217 
3 1 0 4 2 0 2 218 217 
7 4 0 2 2 0 1 215 
2 2 0 2 1 0 1 217 
5 3 0 2 3 0 1 218 
3 1 0 2 2 0 1 220 
2 2 0 1 6 0 1 220 
8 2 0 3 4 0 1 220 
0 0 0 0 0 0 1 423 
0 0 0 0 0 0 3 222 223 227 
4 0 1 0 0 0 3 231 226 225 
8 0 2 0 0 0 2 225 224 
6 0 1 0 0 0 4 231 230 229 228 
4 0 2 0 0 0 2 230 228 
7 0 2 0 0 0 2 229 228 
2 0 2 0 0 0 2 229 228 
5 0 2 0 0 0 1 232 
9 0 4 0 0 0 1 232 
2 0 4 0 0 0 1 232 
3 0 5 0 0 0 1 232 
0 0 0 0 0 0 4 297 319 341 363 
0 0 0 0 0 0 7 234 235 236 238 242 262 263 
5 0 0 1 1 1 4 258 243 239 237 
7 0 0 3 2 3 6 259 258 257 256 255 240 
1 0 0 2 3 3 4 260 259 250 240 
2 0 0 1 4 5 3 255 249 240 
4 0 0 3 1 4 6 261 259 252 249 245 243 
8 0 0 2 2 2 3 253 244 241 
5 0 0 3 1 1 2 253 241 
9 0 0 4 3 2 3 254 248 245 
6 0 0 2 2 1 2 258 244 
4 0 0 3 1 2 3 255 253 247 
10 0 0 2 2 2 2 257 248 
1 0 0 2 2 3 1 246 
5 0 0 2 3 3 1 247 
4 0 0 4 2 1 1 251 
6 0 0 2 5 3 1 252 
4 0 0 4 5 3 1 256 
8 0 0 1 3 5 1 251 
6 0 0 5 2 2 1 264 
4 0 0 3 3 1 1 264 
8 0 0 2 2 2 1 264 
3 0 0 1 4 3 1 264 
4 0 0 1 3 2 1 264 
3 0 0 1 2 5 1 264 
3 0 0 3 2 1 1 264 
9 0 0 2 1 2 1 264 
6 0 0 4 3 4 1 264 
3 0 0 4 3 3 1 264 
4 0 0 3 2 1 1 264 
9 0 0 2 5 1 1 264 
5 0 0 3 1 4 1 264 
0 0 0 0 0 0 1 423 
0 0 0 0 0 0 6 266 267 268 269 272 295 
7 1 0 1 0 1 5 278 277 276 273 270 
10 3 0 2 0 2 4 294 276 273 270 
2 2 0 1 0 4 3 273 271 270 
6 5 0 3 0 2 3 280 276 270 
7 4 0 3 0 2 3 286 282 274 
1 3 0 3 0 3 4 291 278 277 275 
5 2 0 1 0 3 4 293 278 277 275 
5 1 0 2 0 2 2 286 275 
2 3 0 3 0 1 1 275 
1 2 0 5 0 2 5 292 290 289 285 281 
6 2 0 4 0 2 3 288 286 279 
4 2 0 3 0 5 4 290 289 288 281 
9 3 0 2 0 4 3 290 285 281 
3 1 0 2 0 2 1 281 
8 2 0 2 0 2 2 289 284 
5 2 0 2 0 3 1 283 
1 2 0 4 0 1 2 291 288 
10 3 0 2 0 1 1 284 
7 6 0 1 0 4 1 287 
5 2 0 1 0 2 1 288 
1 2 0 3 0 2 1 291 
8 4 0 3 0 4 1 296 
5 1 0 3 0 2 1 296 
8 1 0 1 0 3 1 296 
8 4 0 4 0 3 1 296 
7 2 0 4 0 2 1 296 
4 1 0 4 0 5 1 296 
10 3 0 2 0 2 1 296 
6 3 0 1 0 2 1 296 
3 3 0 3 0 2 1 296 
0 0 0 0 0 0 1 423 
0 0 0 0 0 0 9 298 299 300 301 302 303 304 306 309 
6 0 1 1 0 0 3 317 311 305 
8 0 3 2 0 0 3 317 311 305 
9 0 3 5 0 0 3 317 311 307 
3 0 4 3 0 0 2 317 305 
3 0 3 1 0 0 5 317 316 312 311 310 
9 0 1 1 0 0 4 317 316 312 308 
8 0 1 1 0 0 4 317 312 311 308 
10 0 1 4 0 0 3 316 312 308 
8 0 2 2 0 0 3 316 315 310 
1 0 1 2 0 0 2 316 308 
5 0 3 2 0 0 1 310 
8 0 2 5 0 0 1 310 
2 0 3 2 0 0 2 314 313 
2 0 3 3 0 0 2 315 313 
4 0 5 2 0 0 1 315 
3 0 2 2 0 0 1 318 
3 0 2 2 0 0 1 318 
9 0 4 4 0 0 1 318 
9 0 3 5 0 0 1 318 
4 0 3 1 0 0 1 318 
0 0 0 0 0 0 1 423 
0 0 0 0 0 0 9 320 321 322 323 324 325 326 329 331 
10 1 0 0 0 1 4 339 333 330 327 
9 1 0 0 0 2 4 339 333 330 327 
1 5 0 0 0 1 3 339 330 327 
8 2 0 0 0 2 3 339 333 328 
10 2 0 0 0 3 5 339 338 334 333 332 
2 1 0 0 0 3 4 339 338 334 330 
3 3 0 0 0 2 4 339 334 333 330 
9 3 0 0 0 2 3 338 334 332 
5 3 0 0 0 2 2 338 330 
10 3 0 0 0 3 2 338 332 
1 2 0 0 0 2 1 332 
7 3 0 0 0 3 1 332 
4 3 0 0 0 2 2 336 335 
8 2 0 0 0 1 2 337 335 
3 3 0 0 0 3 1 337 
1 3 0 0 0 3 1 340 
8 3 0 0 0 6 1 340 
8 1 0 0 0 2 1 340 
6 2 0 0 0 5 1 340 
3 4 0 0 0 2 1 340 
0 0 0 0 0 0 1 423 
0 0 0 0 0 0 9 342 343 344 345 346 347 350 352 353 
4 1 0 0 1 0 4 361 360 358 348 
5 1 0 0 3 0 4 360 359 355 351 
8 3 0 0 4 0 4 360 359 351 349 
9 3 0 0 2 0 4 360 359 351 349 
4 5 0 0 1 0 3 360 355 351 
7 1 0 0 3 0 3 359 355 354 
2 4 0 0 3 0 2 359 351 
7 2 0 0 4 0 3 358 357 354 
3 5 0 0 4 0 3 359 357 355 
6 3 0 0 3 0 2 357 354 
2 3 0 0 2 0 2 357 356 
8 2 0 0 1 0 1 354 
4 2 0 0 3 0 1 356 
1 2 0 0 2 0 1 358 
7 3 0 0 5 0 1 362 
8 2 0 0 2 0 1 362 
4 3 0 0 1 0 1 362 
3 1 0 0 2 0 1 362 
4 2 0 0 3 0 1 362 
6 2 0 0 1 0 1 362 
0 0 0 0 0 0 1 423 
0 0 0 0 0 0 6 364 365 367 371 372 373 
9 0 0 0 1 0 2 370 366 
6 0 0 0 3 0 2 369 368 
2 0 0 0 7 0 1 368 
2 0 0 0 1 0 1 369 
1 0 0 0 1 0 1 374 
1 0 0 0 1 0 1 374 
8 0 0 0 4 0 1 374 
9 0 0 0 2 0 1 374 
7 0 0 0 3 0 1 374 
10 0 0 0 2 0 1 374 
0 0 0 0 0 0 4 375 387 399 411 
0 0 0 0 0 0 5 376 377 383 384 385 
2 1 0 0 0 0 3 382 381 380 
1 3 0 0 0 0 1 378 
7 2 0 0 0 0 1 379 
7 4 0 0 0 0 1 386 
8 3 0 0 0 0 1 386 
6 1 0 0 0 0 1 386 
9 1 0 0 0 0 1 386 
7 4 0 0 0 0 1 386 
5 4 0 0 0 0 1 386 
1 2 0 0 0 0 1 386 
0 0 0 0 0 0 1 423 
0 0 0 0 0 0 5 388 389 390 396 397 
3 0 0 1 0 0 3 395 392 391 
4 0 0 5 0 0 3 394 393 392 
2 0 0 2 0 0 2 394 392 
9 0 0 1 0 0 1 393 
5 0 0 4 0 0 1 398 
4 0 0 2 0 0 1 398 
6 0 0 2 0 0 1 398 
7 0 0 4 0 0 1 398 
3 0 0 3 0 0 1 398 
8 0 0 1 0 0 1 398 
0 0 0 0 0 0 1 423 
0 0 0 0 0 0 5 400 401 403 408 409 
6 0 0 1 0 0 2 406 402 
4 0 0 4 0 0 3 406 405 404 
5 0 0 2 0 0 2 405 404 
1 0 0 2 0 0 2 407 404 
10 0 0 4 0 0 1 410 
8 0 0 1 0 0 1 410 
3 0 0 4 0 0 1 410 
1 0 0 1 0 0 1 410 
8 0 0 4 0 0 1 410 
8 0 0 2 0 0 1 410 
0 0 0 0 0 0 1 423 
0 0 0 0 0 0 3 412 414 415 
6 0 1 0 0 0 4 421 419 416 413 
6 0 4 0 0 0 2 420 418 
2 0 4 0 0 0 2 419 417 
5 0 2 0 0 0 2 418 417 
1 0 3 0 0 0 1 417 
4 0 3 0 0 0 1 422 
4 0 2 0 0 0 1 422 
8 0 2 0 0 0 1 422 
4 0 1 0 0 0 1 422 
5 0 3 0 0 0 1 422 
0 0 0 0 0 0 1 423 
0 0 0 0 0 0 0 
